
Gurobi 11.0.0 (linux64) logging started Wed Jan  8 11:39:31 2025

Set parameter LogFile to value "gurobi.log"
Set parameter InfUnbdInfo to value 1
Gurobi Optimizer version 11.0.0 build v11.0.0rc2 (linux64 - "Ubuntu 22.04.4 LTS")

CPU model: AMD EPYC 7V13 64-Core Processor, instruction set [SSE2|AVX|AVX2]
Thread count: 128 physical cores, 128 logical processors, using up to 32 threads

Optimize a model with 66 rows, 233 columns and 182 nonzeros
Model fingerprint: 0x9d32d28c
Model has 125 quadratic constraints
Model has 24 general constraints
Variable types: 46 continuous, 187 integer (0 binary)
Coefficient statistics:
  Matrix range     [1e+00, 2e+01]
  QMatrix range    [1e+00, 4e+02]
  QLMatrix range   [1e+00, 1e+00]
  Objective range  [1e+00, 1e+00]
  Bounds range     [1e+00, 2e+06]
  RHS range        [1e+00, 4e+00]
  QRHS range       [1e+02, 5e+05]
  GenCon rhs range [1e+00, 1e+00]
  GenCon coe range [1e+00, 1e+00]
Using branch priorities (all 0).
Presolve added 44 rows and 66 columns
Presolve time: 0.01s
Presolved: 641 rows, 564 columns, 2593 nonzeros
Presolved model has 144 SOS constraint(s)
Presolved model has 48 bilinear constraint(s)
Warning: Model contains variables with very large bounds participating
         in product terms.
         Presolve was not able to compute smaller bounds for these variables.
         Consider bounding these variables or reformulating the model.


Solving non-convex MIQCP

Variable types: 130 continuous, 434 integer (123 binary)

Root relaxation: objective 3.872611e+02, 236 iterations, 0.00 seconds (0.00 work units)

    Nodes    |    Current Node    |     Objective Bounds      |     Work
 Expl Unexpl |  Obj  Depth IntInf | Incumbent    BestBd   Gap | It/Node Time

     0     0  387.26110    0  175          -  387.26110      -     -    0s
     0     0  387.30709    0  174          -  387.30709      -     -    0s
     0     0  387.30710    0  167          -  387.30710      -     -    0s
H    0     0                    293451.45136  387.30710   100%     -    0s
H    0     0                    293450.95136  387.30710   100%     -    0s
     0     0  562.56294    0  158 293450.951  562.56294   100%     -    0s
     0     0  562.56294    0  148 293450.951  562.56294   100%     -    0s
     0     0  570.63407    0  148 293450.951  570.63407   100%     -    0s
     0     0  745.63668    0  226 293450.951  745.63668   100%     -    0s
     0     0  745.63668    0   45 293450.951  745.63668   100%     -    1s
     0     0  745.63668    0  106 293450.951  745.63668   100%     -    1s
     0     0  745.63668    0  154 293450.951  745.63668   100%     -    1s
     0     0  745.63668    0  154 293450.951  745.63668   100%     -    1s
     0     0  833.40315    0  133 293450.951  833.40315   100%     -    1s
H    0     0                    212330.45136  834.69027   100%     -    1s
     0     0  834.69027    0  141 212330.451  834.69027   100%     -    1s
     0     0  945.61312    0  127 212330.451  945.61312   100%     -    1s
     0     0  948.62363    0  125 212330.451  948.62363   100%     -    1s
     0     0  978.25819    0  117 212330.451  978.25819   100%     -    1s
     0     0  979.59347    0  125 212330.451  979.59347   100%     -    2s
     0     0  985.81413    0  125 212330.451  985.81413   100%     -    2s
     0     0 3287.65991    0  115 212330.451 3287.65991  98.5%     -    2s
     0     0 3316.68151    0  147 212330.451 3316.68151  98.4%     -    2s
     0     0 3316.68151    0  147 212330.451 3316.68151  98.4%     -    2s
     0     0 3481.58687    0  146 212330.451 3481.58687  98.4%     -    2s
     0     0 3488.67140    0  151 212330.451 3488.67140  98.4%     -    2s
     0     0 3492.75110    0  155 212330.451 3492.75110  98.4%     -    2s
     0     0 3493.49510    0  158 212330.451 3493.49510  98.4%     -    2s
     0     0 3493.92426    0  137 212330.451 3493.92426  98.4%     -    2s
     0     0 3645.41117    0  126 212330.451 3645.41117  98.3%     -    3s
     0     0 3645.41117    0  126 212330.451 3645.41117  98.3%     -    3s
     0     0 4755.25207    0  137 212330.451 4755.25207  97.8%     -    3s
     0     0 4755.25207    0  137 212330.451 4755.25207  97.8%     -    3s
     0     0 5491.65729    0  106 212330.451 5491.65729  97.4%     -    3s
     0     0 6201.95118    0   92 212330.451 6201.95118  97.1%     -    3s
     0     0 6201.95118    0   59 212330.451 6201.95118  97.1%     -    3s
     0     0 6201.95118    0   57 212330.451 6201.95118  97.1%     -    3s
     0     0 6201.95118    0   87 212330.451 6201.95118  97.1%     -    3s
     0     0 6201.95118    0   91 212330.451 6201.95118  97.1%     -    3s
H    0     0                    172121.22868 6201.95118  96.4%     -    3s
     0     0 6201.95118    0  100 172121.229 6201.95118  96.4%     -    3s
     0     0 6666.65331    0   65 172121.229 6666.65331  96.1%     -    4s
     0     2 6666.65331    0   65 172121.229 6666.65331  96.1%     -    4s
    54    56 6666.65331    5  106 172121.229 6666.65331  96.1%  64.4    5s
*  679   529              19    96295.052726 6666.65331  93.1%  23.3    6s
H  705   560                    91000.207271 6666.65331  92.7%  22.5    6s
H  728   560                    20720.675335 6666.65331  67.8%  22.2    6s
H  826   560                    20190.739945 6666.65331  67.0%  21.2    6s
* 1193   506              20    16583.554460 6666.65331  59.8%  18.7    6s

Cutting planes:
  Learned: 2
  Gomory: 21
  Cover: 9
  Implied bound: 141
  Clique: 1
  MIR: 100
  StrongCG: 19
  Flow cover: 13
  Inf proof: 6
  Zero half: 2
  RLT: 109
  Relax-and-lift: 49
  BQP: 3
  PSD: 1

Explored 2042 nodes (29088 simplex iterations) in 7.24 seconds (0.31 work units)
Thread count was 32 (of 128 available processors)

Solution count 10: 16583.6 20190.7 20720.7 ... 293451

Optimal solution found (tolerance 1.00e-04)
Warning: max constraint violation (5.1199e-04) exceeds tolerance
Warning: max general constraint violation (5.1199e-04) exceeds tolerance
Best objective 1.658355446000e+04, best bound 1.658355446000e+04, gap 0.0000%

Gurobi 11.0.0 (linux64) logging started Wed Jan  8 11:55:55 2025

Set parameter LogFile to value "gurobi.log"
Set parameter InfUnbdInfo to value 1
Gurobi Optimizer version 11.0.0 build v11.0.0rc2 (linux64 - "Ubuntu 22.04.4 LTS")

CPU model: AMD EPYC 7V13 64-Core Processor, instruction set [SSE2|AVX|AVX2]
Thread count: 128 physical cores, 128 logical processors, using up to 32 threads

Optimize a model with 66 rows, 233 columns and 182 nonzeros
Model fingerprint: 0xc1892b34
Model has 125 quadratic constraints
Model has 24 general constraints
Variable types: 46 continuous, 187 integer (0 binary)
Coefficient statistics:
  Matrix range     [1e+00, 2e+01]
  QMatrix range    [1e+00, 4e+02]
  QLMatrix range   [1e+00, 1e+00]
  Objective range  [1e+00, 1e+00]
  Bounds range     [1e+00, 2e+06]
  RHS range        [1e+00, 4e+00]
  QRHS range       [1e+02, 5e+05]
  GenCon rhs range [1e+00, 1e+00]
  GenCon coe range [1e+00, 1e+00]
Using branch priorities (all 0).
Presolve added 44 rows and 66 columns
Presolve time: 0.01s
Presolved: 641 rows, 564 columns, 2593 nonzeros
Presolved model has 144 SOS constraint(s)
Presolved model has 48 bilinear constraint(s)
Warning: Model contains variables with very large bounds participating
         in product terms.
         Presolve was not able to compute smaller bounds for these variables.
         Consider bounding these variables or reformulating the model.


Solving non-convex MIQCP

Variable types: 130 continuous, 434 integer (123 binary)

Root relaxation: objective 3.872611e+02, 246 iterations, 0.00 seconds (0.00 work units)

    Nodes    |    Current Node    |     Objective Bounds      |     Work
 Expl Unexpl |  Obj  Depth IntInf | Incumbent    BestBd   Gap | It/Node Time

     0     0  387.26110    0  175          -  387.26110      -     -    0s
     0     0  387.30709    0  174          -  387.30709      -     -    0s
     0     0  387.30709    0  167          -  387.30709      -     -    0s
H    0     0                    293451.45136  387.30709   100%     -    0s
     0     0  557.02687    0  196 293451.451  557.02687   100%     -    0s
     0     0  557.02687    0  182 293451.451  557.02687   100%     -    0s
     0     0  564.02184    0  182 293451.451  564.02184   100%     -    0s
     0     0  780.98018    0  221 293451.451  780.98018   100%     -    0s
     0     0  780.98018    0   42 293451.451  780.98018   100%     -    1s
H    0     0                    293450.95136  780.98018   100%     -    1s
     0     0  890.01983    0  130 293450.951  890.01983   100%     -    1s
     0     0  891.55904    0  147 293450.951  891.55904   100%     -    1s
     0     0  922.29694    0  143 293450.951  922.29694   100%     -    1s
     0     0  922.53165    0  147 293450.951  922.53165   100%     -    1s
     0     0  974.13131    0  128 293450.951  974.13131   100%     -    1s
     0     0  979.55117    0  140 293450.951  979.55117   100%     -    1s
     0     0  988.20529    0  135 293450.951  988.20529   100%     -    1s
     0     0  988.73810    0  124 293450.951  988.73810   100%     -    2s
     0     0 1159.18061    0  125 293450.951 1159.18061   100%     -    2s
     0     0 1159.20709    0  127 293450.951 1159.20709   100%     -    2s
     0     0 1161.50084    0  126 293450.951 1161.50084   100%     -    2s
     0     0 1161.58173    0  126 293450.951 1161.58173   100%     -    2s
     0     0 1161.62118    0  147 293450.951 1161.62118   100%     -    2s
     0     0 1162.09215    0  147 293450.951 1162.09215   100%     -    2s
     0     0 1276.44985    0  147 293450.951 1276.44985   100%     -    2s
     0     0 4111.01966    0  118 293450.951 4111.01966  98.6%     -    3s
H    0     0                    212330.45136 4111.01966  98.1%     -    3s
     0     2 4111.01966    0   55 212330.451 4111.01966  98.1%     -    3s
H  177   153                    149754.15790 4111.01966  97.3%  48.3    4s
*  824   539              29    63416.120318 4111.01966  93.5%  19.1    4s
*  917   531              22    58067.935435 4111.01966  92.9%  19.0    5s
* 1019   531              26    22601.486492 4111.01966  81.8%  19.2    5s
* 1222   521              37    22506.414798 4111.01966  81.7%  18.8    5s
* 1393   585              36    17844.828656 4111.01966  77.0%  18.5    5s
* 1677   540              22    17162.677350 4111.01966  76.0%  18.0    5s
* 1991   448              32    16583.554460 4111.01966  75.2%  17.4    5s

Cutting planes:
  Learned: 5
  Gomory: 45
  Cover: 9
  Implied bound: 147
  MIR: 99
  StrongCG: 21
  Flow cover: 9
  Zero half: 2
  Mod-K: 2
  RLT: 134
  Relax-and-lift: 54
  BQP: 3

Explored 2911 nodes (41873 simplex iterations) in 6.24 seconds (0.31 work units)
Thread count was 32 (of 128 available processors)

Solution count 10: 16583.6 17162.7 17844.8 ... 293451

Optimal solution found (tolerance 1.00e-04)
Warning: max constraint violation (5.1199e-04) exceeds tolerance
Warning: max general constraint violation (5.1199e-04) exceeds tolerance
Best objective 1.658355446000e+04, best bound 1.658355446000e+04, gap 0.0000%
